dzn-files/A004.dzn
k = 4;
b = 2;
AtomicConstraints =  [|
4, 1|
	4, 2|
	3, 2|];
DisjunctiveConstraints =  [||];
SoftAtomicConstraints =  [|
1, 2|
4, 3|];
DirectSuccessors =  [];
